NAME: GP0_490.hcp
COMMENT: 
TYPE: HCP
DIMENSION: 490
EDGE_DATA_FORMAT : EDGE_LIST
EDGE_DATA_SECTION
1 2
1 245
1 246
2 1
2 3
2 247
3 2
3 4
3 248
4 3
4 5
4 249
5 4
5 6
5 250
6 5
6 7
6 251
7 6
7 8
7 252
8 7
8 9
8 253
9 8
9 10
9 254
10 9
10 11
10 255
11 10
11 12
11 256
12 11
12 13
12 257
13 12
13 14
13 258
14 13
14 15
14 259
15 14
15 16
15 260
16 15
16 17
16 261
17 16
17 18
17 262
18 17
18 19
18 263
19 18
19 20
19 264
20 19
20 21
20 265
21 20
21 22
21 266
22 21
22 23
22 267
23 22
23 24
23 268
24 23
24 25
24 269
25 24
25 26
25 270
26 25
26 27
26 271
27 26
27 28
27 272
28 27
28 29
28 273
29 28
29 30
29 274
30 29
30 31
30 275
31 30
31 32
31 276
32 31
32 33
32 277
33 32
33 34
33 278
34 33
34 35
34 279
35 34
35 36
35 280
36 35
36 37
36 281
37 36
37 38
37 282
38 37
38 39
38 283
39 38
39 40
39 284
40 39
40 41
40 285
41 40
41 42
41 286
42 41
42 43
42 287
43 42
43 44
43 288
44 43
44 45
44 289
45 44
45 46
45 290
46 45
46 47
46 291
47 46
47 48
47 292
48 47
48 49
48 293
49 48
49 50
49 294
50 49
50 51
50 295
51 50
51 52
51 296
52 51
52 53
52 297
53 52
53 54
53 298
54 53
54 55
54 299
55 54
55 56
55 300
56 55
56 57
56 301
57 56
57 58
57 302
58 57
58 59
58 303
59 58
59 60
59 304
60 59
60 61
60 305
61 60
61 62
61 306
62 61
62 63
62 307
63 62
63 64
63 308
64 63
64 65
64 309
65 64
65 66
65 310
66 65
66 67
66 311
67 66
67 68
67 312
68 67
68 69
68 313
69 68
69 70
69 314
70 69
70 71
70 315
71 70
71 72
71 316
72 71
72 73
72 317
73 72
73 74
73 318
74 73
74 75
74 319
75 74
75 76
75 320
76 75
76 77
76 321
77 76
77 78
77 322
78 77
78 79
78 323
79 78
79 80
79 324
80 79
80 81
80 325
81 80
81 82
81 326
82 81
82 83
82 327
83 82
83 84
83 328
84 83
84 85
84 329
85 84
85 86
85 330
86 85
86 87
86 331
87 86
87 88
87 332
88 87
88 89
88 333
89 88
89 90
89 334
90 89
90 91
90 335
91 90
91 92
91 336
92 91
92 93
92 337
93 92
93 94
93 338
94 93
94 95
94 339
95 94
95 96
95 340
96 95
96 97
96 341
97 96
97 98
97 342
98 97
98 99
98 343
99 98
99 100
99 344
100 99
100 101
100 345
101 100
101 102
101 346
102 101
102 103
102 347
103 102
103 104
103 348
104 103
104 105
104 349
105 104
105 106
105 350
106 105
106 107
106 351
107 106
107 108
107 352
108 107
108 109
108 353
109 108
109 110
109 354
110 109
110 111
110 355
111 110
111 112
111 356
112 111
112 113
112 357
113 112
113 114
113 358
114 113
114 115
114 359
115 114
115 116
115 360
116 115
116 117
116 361
117 116
117 118
117 362
118 117
118 119
118 363
119 118
119 120
119 364
120 119
120 121
120 365
121 120
121 122
121 366
122 121
122 123
122 367
123 122
123 124
123 368
124 123
124 125
124 369
125 124
125 126
125 370
126 125
126 127
126 371
127 126
127 128
127 372
128 127
128 129
128 373
129 128
129 130
129 374
130 129
130 131
130 375
131 130
131 132
131 376
132 131
132 133
132 377
133 132
133 134
133 378
134 133
134 135
134 379
135 134
135 136
135 380
136 135
136 137
136 381
137 136
137 138
137 382
138 137
138 139
138 383
139 138
139 140
139 384
140 139
140 141
140 385
141 140
141 142
141 386
142 141
142 143
142 387
143 142
143 144
143 388
144 143
144 145
144 389
145 144
145 146
145 390
146 145
146 147
146 391
147 146
147 148
147 392
148 147
148 149
148 393
149 148
149 150
149 394
150 149
150 151
150 395
151 150
151 152
151 396
152 151
152 153
152 397
153 152
153 154
153 398
154 153
154 155
154 399
155 154
155 156
155 400
156 155
156 157
156 401
157 156
157 158
157 402
158 157
158 159
158 403
159 158
159 160
159 404
160 159
160 161
160 405
161 160
161 162
161 406
162 161
162 163
162 407
163 162
163 164
163 408
164 163
164 165
164 409
165 164
165 166
165 410
166 165
166 167
166 411
167 166
167 168
167 412
168 167
168 169
168 413
169 168
169 170
169 414
170 169
170 171
170 415
171 170
171 172
171 416
172 171
172 173
172 417
173 172
173 174
173 418
174 173
174 175
174 419
175 174
175 176
175 420
176 175
176 177
176 421
177 176
177 178
177 422
178 177
178 179
178 423
179 178
179 180
179 424
180 179
180 181
180 425
181 180
181 182
181 426
182 181
182 183
182 427
183 182
183 184
183 428
184 183
184 185
184 429
185 184
185 186
185 430
186 185
186 187
186 431
187 186
187 188
187 432
188 187
188 189
188 433
189 188
189 190
189 434
190 189
190 191
190 435
191 190
191 192
191 436
192 191
192 193
192 437
193 192
193 194
193 438
194 193
194 195
194 439
195 194
195 196
195 440
196 195
196 197
196 441
197 196
197 198
197 442
198 197
198 199
198 443
199 198
199 200
199 444
200 199
200 201
200 445
201 200
201 202
201 446
202 201
202 203
202 447
203 202
203 204
203 448
204 203
204 205
204 449
205 204
205 206
205 450
206 205
206 207
206 451
207 206
207 208
207 452
208 207
208 209
208 453
209 208
209 210
209 454
210 209
210 211
210 455
211 210
211 212
211 456
212 211
212 213
212 457
213 212
213 214
213 458
214 213
214 215
214 459
215 214
215 216
215 460
216 215
216 217
216 461
217 216
217 218
217 462
218 217
218 219
218 463
219 218
219 220
219 464
220 219
220 221
220 465
221 220
221 222
221 466
222 221
222 223
222 467
223 222
223 224
223 468
224 223
224 225
224 469
225 224
225 226
225 470
226 225
226 227
226 471
227 226
227 228
227 472
228 227
228 229
228 473
229 228
229 230
229 474
230 229
230 231
230 475
231 230
231 232
231 476
232 231
232 233
232 477
233 232
233 234
233 478
234 233
234 235
234 479
235 234
235 236
235 480
236 235
236 237
236 481
237 236
237 238
237 482
238 237
238 239
238 483
239 238
239 240
239 484
240 239
240 241
240 485
241 240
241 242
241 486
242 241
242 243
242 487
243 242
243 244
243 488
244 243
244 245
244 489
245 1
245 244
245 490
246 1
246 248
246 489
247 2
247 249
247 490
248 3
248 246
248 250
249 4
249 247
249 251
250 5
250 248
250 252
251 6
251 249
251 253
252 7
252 250
252 254
253 8
253 251
253 255
254 9
254 252
254 256
255 10
255 253
255 257
256 11
256 254
256 258
257 12
257 255
257 259
258 13
258 256
258 260
259 14
259 257
259 261
260 15
260 258
260 262
261 16
261 259
261 263
262 17
262 260
262 264
263 18
263 261
263 265
264 19
264 262
264 266
265 20
265 263
265 267
266 21
266 264
266 268
267 22
267 265
267 269
268 23
268 266
268 270
269 24
269 267
269 271
270 25
270 268
270 272
271 26
271 269
271 273
272 27
272 270
272 274
273 28
273 271
273 275
274 29
274 272
274 276
275 30
275 273
275 277
276 31
276 274
276 278
277 32
277 275
277 279
278 33
278 276
278 280
279 34
279 277
279 281
280 35
280 278
280 282
281 36
281 279
281 283
282 37
282 280
282 284
283 38
283 281
283 285
284 39
284 282
284 286
285 40
285 283
285 287
286 41
286 284
286 288
287 42
287 285
287 289
288 43
288 286
288 290
289 44
289 287
289 291
290 45
290 288
290 292
291 46
291 289
291 293
292 47
292 290
292 294
293 48
293 291
293 295
294 49
294 292
294 296
295 50
295 293
295 297
296 51
296 294
296 298
297 52
297 295
297 299
298 53
298 296
298 300
299 54
299 297
299 301
300 55
300 298
300 302
301 56
301 299
301 303
302 57
302 300
302 304
303 58
303 301
303 305
304 59
304 302
304 306
305 60
305 303
305 307
306 61
306 304
306 308
307 62
307 305
307 309
308 63
308 306
308 310
309 64
309 307
309 311
310 65
310 308
310 312
311 66
311 309
311 313
312 67
312 310
312 314
313 68
313 311
313 315
314 69
314 312
314 316
315 70
315 313
315 317
316 71
316 314
316 318
317 72
317 315
317 319
318 73
318 316
318 320
319 74
319 317
319 321
320 75
320 318
320 322
321 76
321 319
321 323
322 77
322 320
322 324
323 78
323 321
323 325
324 79
324 322
324 326
325 80
325 323
325 327
326 81
326 324
326 328
327 82
327 325
327 329
328 83
328 326
328 330
329 84
329 327
329 331
330 85
330 328
330 332
331 86
331 329
331 333
332 87
332 330
332 334
333 88
333 331
333 335
334 89
334 332
334 336
335 90
335 333
335 337
336 91
336 334
336 338
337 92
337 335
337 339
338 93
338 336
338 340
339 94
339 337
339 341
340 95
340 338
340 342
341 96
341 339
341 343
342 97
342 340
342 344
343 98
343 341
343 345
344 99
344 342
344 346
345 100
345 343
345 347
346 101
346 344
346 348
347 102
347 345
347 349
348 103
348 346
348 350
349 104
349 347
349 351
350 105
350 348
350 352
351 106
351 349
351 353
352 107
352 350
352 354
353 108
353 351
353 355
354 109
354 352
354 356
355 110
355 353
355 357
356 111
356 354
356 358
357 112
357 355
357 359
358 113
358 356
358 360
359 114
359 357
359 361
360 115
360 358
360 362
361 116
361 359
361 363
362 117
362 360
362 364
363 118
363 361
363 365
364 119
364 362
364 366
365 120
365 363
365 367
366 121
366 364
366 368
367 122
367 365
367 369
368 123
368 366
368 370
369 124
369 367
369 371
370 125
370 368
370 372
371 126
371 369
371 373
372 127
372 370
372 374
373 128
373 371
373 375
374 129
374 372
374 376
375 130
375 373
375 377
376 131
376 374
376 378
377 132
377 375
377 379
378 133
378 376
378 380
379 134
379 377
379 381
380 135
380 378
380 382
381 136
381 379
381 383
382 137
382 380
382 384
383 138
383 381
383 385
384 139
384 382
384 386
385 140
385 383
385 387
386 141
386 384
386 388
387 142
387 385
387 389
388 143
388 386
388 390
389 144
389 387
389 391
390 145
390 388
390 392
391 146
391 389
391 393
392 147
392 390
392 394
393 148
393 391
393 395
394 149
394 392
394 396
395 150
395 393
395 397
396 151
396 394
396 398
397 152
397 395
397 399
398 153
398 396
398 400
399 154
399 397
399 401
400 155
400 398
400 402
401 156
401 399
401 403
402 157
402 400
402 404
403 158
403 401
403 405
404 159
404 402
404 406
405 160
405 403
405 407
406 161
406 404
406 408
407 162
407 405
407 409
408 163
408 406
408 410
409 164
409 407
409 411
410 165
410 408
410 412
411 166
411 409
411 413
412 167
412 410
412 414
413 168
413 411
413 415
414 169
414 412
414 416
415 170
415 413
415 417
416 171
416 414
416 418
417 172
417 415
417 419
418 173
418 416
418 420
419 174
419 417
419 421
420 175
420 418
420 422
421 176
421 419
421 423
422 177
422 420
422 424
423 178
423 421
423 425
424 179
424 422
424 426
425 180
425 423
425 427
426 181
426 424
426 428
427 182
427 425
427 429
428 183
428 426
428 430
429 184
429 427
429 431
430 185
430 428
430 432
431 186
431 429
431 433
432 187
432 430
432 434
433 188
433 431
433 435
434 189
434 432
434 436
435 190
435 433
435 437
436 191
436 434
436 438
437 192
437 435
437 439
438 193
438 436
438 440
439 194
439 437
439 441
440 195
440 438
440 442
441 196
441 439
441 443
442 197
442 440
442 444
443 198
443 441
443 445
444 199
444 442
444 446
445 200
445 443
445 447
446 201
446 444
446 448
447 202
447 445
447 449
448 203
448 446
448 450
449 204
449 447
449 451
450 205
450 448
450 452
451 206
451 449
451 453
452 207
452 450
452 454
453 208
453 451
453 455
454 209
454 452
454 456
455 210
455 453
455 457
456 211
456 454
456 458
457 212
457 455
457 459
458 213
458 456
458 460
459 214
459 457
459 461
460 215
460 458
460 462
461 216
461 459
461 463
462 217
462 460
462 464
463 218
463 461
463 465
464 219
464 462
464 466
465 220
465 463
465 467
466 221
466 464
466 468
467 222
467 465
467 469
468 223
468 466
468 470
469 224
469 467
469 471
470 225
470 468
470 472
471 226
471 469
471 473
472 227
472 470
472 474
473 228
473 471
473 475
474 229
474 472
474 476
475 230
475 473
475 477
476 231
476 474
476 478
477 232
477 475
477 479
478 233
478 476
478 480
479 234
479 477
479 481
480 235
480 478
480 482
481 236
481 479
481 483
482 237
482 480
482 484
483 238
483 481
483 485
484 239
484 482
484 486
485 240
485 483
485 487
486 241
486 484
486 488
487 242
487 485
487 489
488 243
488 486
488 490
489 244
489 246
489 487
490 245
490 247
490 488
212 481
481 212
-1
EOF